PROBLEM NAME: eil51_n13
KNAPSACK DATA TYPE: multiple strongly correlated
DIMENSION: 13
NUMBER OF ITEMS: 60
CAPACITY OF KNAPSACK: 16354
MIN SPEED: 0.1
MAX SPEED: 1
RENTING RATIO: 41.01
EDGE_WEIGHT_TYPE: CEIL_2D
NODE_COORD_SECTION	(INDEX, X, Y):
1	49	49
2	31	32
3	36	16
4	43	67
5	58	27
6	37	69
7	32	22
8	45	35
9	5	6
10	25	55
11	48	28
12	56	37
13	30	40
ITEMS SECTION	(INDEX, PROFIT, WEIGHT, ASSIGNED NODE NUMBER):
1	1179	979	4
2	1165	965	4
3	1128	928	4
4	1121	921	4
5	1115	915	4
6	1092	792	6
7	1086	786	6
8	1061	861	6
9	1048	848	6
10	1014	714	6
11	1014	814	10
12	1013	813	10
13	990	790	10
14	989	789	10
15	973	773	10
16	953	753	13
17	952	752	13
18	948	748	13
19	910	710	13
20	882	682	13
21	852	652	2
22	847	647	2
23	805	605	2
24	785	585	2
25	775	575	2
26	768	568	9
27	760	560	9
28	759	559	9
29	745	545	9
30	737	537	9
31	726	526	3
32	688	488	3
33	677	477	3
34	593	393	3
35	586	386	3
36	574	374	7
37	573	373	7
38	564	364	7
39	564	264	7
40	563	363	7
41	555	355	8
42	553	353	8
43	534	234	8
44	520	320	8
45	514	314	8
46	513	313	11
47	445	245	11
48	442	242	11
49	429	229	11
50	425	225	11
51	417	217	5
52	355	155	5
53	312	112	5
54	311	111	5
55	306	106	5
56	283	83	12
57	270	70	12
58	250	50	12
59	249	49	12
60	226	26	12
